# Solution for model problem
# Objective value = 9
CLIENT_PE13_0 1
CLIENT_PE7_2 1
CLIENT_PE4_3 1
CLIENT_PE1_4 1
src_2 1
ptr_1 1
cache_4 1
tooth_2 1
sink_1 1
CLIENT_PE0_0 0
CLIENT_PE2_0 0
CLIENT_PE3_0 0
CLIENT_PE4_0 0
CLIENT_PE6_0 0
CLIENT_PE7_0 0
CLIENT_PE14_0 0
CLIENT_PE0_2 0
CLIENT_PE2_2 0
CLIENT_PE3_2 0
CLIENT_PE4_2 0
CLIENT_PE6_2 0
CLIENT_PE13_2 0
CLIENT_PE14_2 0
CLIENT_PE0_3 0
CLIENT_PE2_3 0
CLIENT_PE3_3 0
CLIENT_PE6_3 0
CLIENT_PE7_3 0
CLIENT_PE13_3 0
CLIENT_PE14_3 0
CLIENT_PE0_4 0
CLIENT_PE2_4 0
CLIENT_PE3_4 0
CLIENT_PE4_4 0
CLIENT_PE5_4 0
CLIENT_PE6_4 0
CLIENT_PE7_4 0
CLIENT_PE8_4 0
CLIENT_PE9_4 0
CLIENT_PE10_4 0
CLIENT_PE11_4 0
CLIENT_PE12_4 0
CLIENT_PE13_4 0
CLIENT_PE14_4 0
CLIENT_PE15_4 0
CLIENT_PE16_4 0
src_0 0
src_1 0
src_3 0
src_4 0
ptr_0 0
ptr_2 0
ptr_3 0
ptr_4 0
cache_0 0
cache_1 0
cache_2 0
cache_3 0
tooth_0 0
tooth_1 0
tooth_3 0
tooth_4 0
sink_0 0
sink_2 0
sink_3 0
sink_4 0
